NAME: line_40_65
TYPE: TSP
COMMENT: srandom_40_65
DIMENSION: 40
EDGE_WEIGHT_TYPE: EUC_2D
NODE_COORD_SECTION
1 3977 4403
2 2611 1529
3 3564 4287
4 418 4674
5 4594 853
6 2056 4987
7 3603 4131
8 351 2284
9 2865 4985
10 1622 4675
11 3343 2494
12 2779 349
13 2325 714
14 1576 4141
15 601 3117
16 4078 4326
17 2162 2089
18 3110 1887
19 2874 2230
20 4389 1100
21 94 1039
22 2227 1307
23 2283 6
24 886 3955
25 3790 3525
26 903 2003
27 2362 3087
28 4225 706
29 3224 3334
30 2162 2388
31 3537 3718
32 1194 423
33 2747 3437
34 1770 826
35 937 3022
36 1482 968
37 115 2428
38 4700 297
39 1953 2121
40 3881 3972
